NAME : mtsp100.6765734_33756651.tour
COMMENT : Cost = 6765734_33756651
COMMENT : Found by LKH-3 [Keld Helsgaun] Tue Mar 15 23:34:22 2022
TYPE : TOUR
DIMENSION : 104
TOUR_SECTION
1
16
18
25
20
56
95
26
87
55
5
53
73
101
27
24
41
39
43
4
44
60
62
37
51
19
92
48
2
100
30
35
93
71
88
103
81
46
76
80
72
57
31
78
99
45
33
68
14
65
86
85
40
83
3
64
77
54
91
79
13
102
34
38
66
8
52
61
74
7
75
67
36
29
58
22
42
23
11
17
90
89
70
49
98
97
32
94
50
104
69
96
82
47
12
28
21
10
9
6
59
63
15
84
-1
EOF
